c nombre: 13
c densidad: 0.1
p edges 50 110
e 1 17
e 1 19
e 1 22
e 1 38
e 2 19
e 2 23
e 3 18
e 3 22
e 3 25
e 3 29
e 3 30
e 3 32
e 4 18
e 4 24
e 4 50
e 5 6
e 5 18
e 5 24
e 5 25
e 5 41
e 5 47
e 5 48
e 6 7
e 6 23
e 6 26
e 6 46
e 7 21
e 7 23
e 7 32
e 7 39
e 7 49
e 8 26
e 8 32
e 8 34
e 8 42
e 8 47
e 9 21
e 9 31
e 10 19
e 10 29
e 10 38
e 10 43
e 11 23
e 11 39
e 11 50
e 12 13
e 12 16
e 12 18
e 12 26
e 12 47
e 12 48
e 13 17
e 13 27
e 13 29
e 13 30
e 13 34
e 13 42
e 15 16
e 15 48
e 15 49
e 16 23
e 16 29
e 16 31
e 16 48
e 16 50
e 17 25
e 17 26
e 17 29
e 17 48
e 19 23
e 19 32
e 19 49
e 20 27
e 20 31
e 20 41
e 21 43
e 21 48
e 22 23
e 22 34
e 22 42
e 22 44
e 22 48
e 23 24
e 23 27
e 23 45
e 23 46
e 24 44
e 25 29
e 25 31
e 25 34
e 26 42
e 27 47
e 28 32
e 29 34
e 30 37
e 31 41
e 31 45
e 32 43
e 33 45
e 34 35
e 35 44
e 35 46
e 36 49
e 38 40
e 38 46
e 40 45
e 40 49
e 41 46
e 43 44
e 43 50
